NAME: cum200.tsp
TYPE: TSP
COMMENT: User-generated TSP file
DIMENSION: 200
EDGE_WEIGHT_TYPE: EUC_2D
NODE_COORD_SECTION
1 64.0 117.0
2 95.0 86.0
3 111.0 6.0
4 194.0 78.0
5 124.0 127.0
6 32.0 125.0
7 56.0 159.0
8 86.0 34.0
9 171.0 184.0
10 171.0 77.0
11 135.0 190.0
12 107.0 32.0
13 41.0 89.0
14 57.0 8.0
15 93.0 3.0
16 85.0 184.0
17 106.0 136.0
18 71.0 139.0
19 161.0 161.0
20 57.0 175.0
21 115.0 5.0
22 85.0 114.0
23 177.0 52.0
24 198.0 133.0
25 165.0 108.0
26 93.0 41.0
27 105.0 98.0
28 97.0 5.0
29 145.0 53.0
30 43.0 180.0
31 111.0 74.0
32 74.0 136.0
33 44.0 146.0
34 64.0 56.0
35 112.0 30.0
36 176.0 138.0
37 80.0 98.0
38 40.0 75.0
39 21.0 112.0
40 78.0 144.0
41 146.0 95.0
42 117.0 45.0
43 90.0 93.0
44 180.0 146.0
45 188.0 19.0
46 100.0 81.0
47 56.0 91.0
48 63.0 21.0
49 7.0 109.0
50 38.0 119.0
51 84.0 100.0
52 174.0 138.0
53 81.0 4.0
54 163.0 185.0
55 101.0 57.0
56 200.0 92.0
57 35.0 108.0
58 6.0 72.0
59 150.0 181.0
60 187.0 137.0
61 38.0 11.0
62 138.0 46.0
63 61.0 54.0
64 142.0 181.0
65 118.0 84.0
66 184.0 136.0
67 120.0 170.0
68 53.0 13.0
69 178.0 170.0
70 115.0 127.0
71 131.0 70.0
72 97.0 32.0
73 29.0 196.0
74 133.0 80.0
75 168.0 123.0
76 49.0 51.0
77 151.0 50.0
78 44.0 111.0
79 138.0 154.0
80 117.0 88.0
81 96.0 170.0
82 41.0 86.0
83 169.0 171.0
84 170.0 55.0
85 175.0 31.0
86 126.0 117.0
87 74.0 3.0
88 47.0 120.0
89 110.0 46.0
90 116.0 52.0
91 1.0 35.0
92 149.0 12.0
93 91.0 121.0
94 123.0 95.0
95 194.0 79.0
96 183.0 117.0
97 187.0 170.0
98 54.0 104.0
99 78.0 197.0
100 30.0 116.0
101 72.0 31.0
102 6.0 111.0
103 140.0 175.0
104 141.0 77.0
105 144.0 70.0
106 90.0 12.0
107 4.0 56.0
108 19.0 92.0
109 70.0 130.0
110 51.0 162.0
111 184.0 49.0
112 22.0 35.0
113 44.0 155.0
114 83.0 75.0
115 144.0 161.0
116 91.0 149.0
117 151.0 65.0
118 63.0 172.0
119 158.0 120.0
120 33.0 101.0
121 128.0 76.0
122 163.0 28.0
123 97.0 81.0
124 102.0 122.0
125 117.0 166.0
126 32.0 93.0
127 108.0 41.0
128 106.0 47.0
129 126.0 34.0
130 129.0 61.0
131 16.0 46.0
132 195.0 149.0
133 77.0 166.0
134 60.0 127.0
135 61.0 64.0
136 9.0 7.0
137 31.0 164.0
138 39.0 191.0
139 37.0 3.0
140 152.0 64.0
141 111.0 175.0
142 145.0 148.0
143 109.0 113.0
144 32.0 28.0
145 168.0 189.0
146 147.0 37.0
147 134.0 71.0
148 141.0 116.0
149 176.0 10.0
150 131.0 12.0
151 75.0 121.0
152 90.0 69.0
153 188.0 39.0
154 126.0 33.0
155 4.0 48.0
156 189.0 172.0
157 66.0 167.0
158 27.0 102.0
159 85.0 2.0
160 63.0 88.0
161 105.0 175.0
162 55.0 72.0
163 27.0 152.0
164 51.0 6.0
165 49.0 100.0
166 105.0 39.0
167 157.0 119.0
168 149.0 13.0
169 179.0 100.0
170 114.0 192.0
171 67.0 133.0
172 79.0 37.0
173 70.0 28.0
174 31.0 200.0
175 94.0 138.0
176 6.0 43.0
177 13.0 102.0
178 78.0 144.0
179 13.0 178.0
180 128.0 161.0
181 27.0 144.0
182 27.0 157.0
183 178.0 11.0
184 61.0 9.0
185 82.0 193.0
186 112.0 162.0
187 173.0 18.0
188 75.0 25.0
189 195.0 190.0
190 44.0 138.0
191 70.0 173.0
192 111.0 149.0
193 125.0 100.0
194 47.0 115.0
195 184.0 88.0
196 183.0 28.0
197 17.0 1.0
198 137.0 58.0
199 53.0 166.0
200 57.0 155.0
EOF





